
===== New CPLEX run =====
Instance: /home/yorig/tuner/mpils-tests/instances/miplib/medium-2/supportcase6.mps
Config: /scratch/yorig/mpils-results-grid-ticks-10000-2proc-no-mip-start/medium-2/2proc/seed-4/9_supportcase6_seed-4_20260502_000030/iterated_local_search/run_1_worker_1/ils_config_6439873165248256756.prm
========================

Selected objective sense:  MINIMIZE
Selected objective  name:  OBJ
Selected RHS        name:  RHS1
Selected bound      name:  BND1
Version identifier: 22.1.2.0 | 2024-11-26 | 0edbb82fd
CPXPARAM_Threads                                 8
CPXPARAM_Parallel                                1
CPXPARAM_MIP_Cuts_Cliques                        2
CPXPARAM_MIP_Cuts_FlowCovers                     -1
CPXPARAM_MIP_Cuts_Implied                        -1
CPXPARAM_MIP_Cuts_GUBCovers                      2
CPXPARAM_MIP_Limits_GomoryCand                   150
CPXPARAM_MIP_Cuts_Gomory                         2
CPXPARAM_MIP_Cuts_PathCut                        2
CPXPARAM_MIP_Cuts_MIRCut                         2
CPXPARAM_Emphasis_MIP                            1
CPXPARAM_DetTimeLimit                            10000
Tried aggregator 3 times.
MIP Presolve eliminated 0 rows and 1 columns.
MIP Presolve modified 757 coefficients.
Aggregator did 7 substitutions.
Reduced MIP has 764 rows, 130044 columns, and 583545 nonzeros.
Reduced MIP has 130044 binaries, 0 generals, 0 SOSs, and 0 indicators.
Presolve time = 0.52 sec. (732.24 ticks)
Found incumbent of value 102597.533860 after 0.93 sec. (1185.29 ticks)
Tried aggregator 1 time.
Detecting symmetries...
Reduced MIP has 764 rows, 130044 columns, and 583545 nonzeros.
Reduced MIP has 130044 binaries, 0 generals, 0 SOSs, and 0 indicators.
Presolve time = 0.28 sec. (317.07 ticks)
Probing time = 0.48 sec. (149.96 ticks)
Clique table members: 229813.
MIP emphasis: integer feasibility.
MIP search method: dynamic search.
Parallel mode: deterministic, using up to 8 threads.
Root relaxation solution time = 2.37 sec. (2855.01 ticks)

        Nodes                                         Cuts/
   Node  Left     Objective  IInf  Best Integer    Best Bound    ItCnt     Gap

*     0+    0                       102597.5339        0.0000           100.00%
      0     0    45090.7322   140   102597.5339    45090.7322     2605   56.05%
      0     0    45163.3376   145   102597.5339       Cuts: 8     2840   55.98%
      0     0    45165.5791   149   102597.5339       Cuts: 4     2861   55.98%

GUB cover cuts applied:  0
Clique cuts applied:  5
Mixed integer rounding cuts applied:  0
Flow path cuts applied:  0
Zero-half cuts applied:  5
Gomory fractional cuts applied:  0

Root node processing (before b&c):
  Real time             =    7.32 sec. (10007.54 ticks)
Parallel b&c, 8 threads:
  Real time             =    0.00 sec. (0.00 ticks)
  Sync time (average)   =    0.00 sec.
  Wait time (average)   =    0.00 sec.
                          ------------
Total (root+branch&cut) =    7.32 sec. (10007.54 ticks)
Gap: 55.98%
Upper bound: 102598
Lower bound: 45165.6
End of CPLEX run. Time: 7.34538 seconds

===== New CPLEX run =====
Instance: /home/yorig/tuner/mpils-tests/instances/miplib/medium-2/supportcase6.mps
Config: /scratch/yorig/mpils-results-grid-ticks-10000-2proc-no-mip-start/medium-2/2proc/seed-4/9_supportcase6_seed-4_20260502_000030/iterated_local_search/run_1_worker_1/ils_config_11255561039145532449.prm
========================

Selected objective sense:  MINIMIZE
Selected objective  name:  OBJ
Selected RHS        name:  RHS1
Selected bound      name:  BND1
Version identifier: 22.1.2.0 | 2024-11-26 | 0edbb82fd
CPXPARAM_Threads                                 8
CPXPARAM_Parallel                                1
CPXPARAM_MIP_Cuts_Cliques                        2
CPXPARAM_MIP_Cuts_FlowCovers                     -1
CPXPARAM_MIP_Cuts_Implied                        -1
CPXPARAM_MIP_Cuts_GUBCovers                      2
CPXPARAM_MIP_Limits_GomoryCand                   150
CPXPARAM_MIP_Cuts_Gomory                         2
CPXPARAM_MIP_Cuts_PathCut                        2
CPXPARAM_MIP_Cuts_MIRCut                         1
CPXPARAM_Emphasis_MIP                            1
CPXPARAM_DetTimeLimit                            10000
Tried aggregator 3 times.
MIP Presolve eliminated 0 rows and 1 columns.
MIP Presolve modified 757 coefficients.
Aggregator did 7 substitutions.
Reduced MIP has 764 rows, 130044 columns, and 583545 nonzeros.
Reduced MIP has 130044 binaries, 0 generals, 0 SOSs, and 0 indicators.
Presolve time = 0.51 sec. (732.24 ticks)
Found incumbent of value 102597.533860 after 0.87 sec. (1185.29 ticks)
Tried aggregator 1 time.
Detecting symmetries...
Reduced MIP has 764 rows, 130044 columns, and 583545 nonzeros.
Reduced MIP has 130044 binaries, 0 generals, 0 SOSs, and 0 indicators.
Presolve time = 0.27 sec. (317.07 ticks)
Probing time = 0.58 sec. (149.96 ticks)
Clique table members: 229813.
MIP emphasis: integer feasibility.
MIP search method: dynamic search.
Parallel mode: deterministic, using up to 8 threads.
Root relaxation solution time = 2.41 sec. (2855.01 ticks)

        Nodes                                         Cuts/
   Node  Left     Objective  IInf  Best Integer    Best Bound    ItCnt     Gap

*     0+    0                       102597.5339        0.0000           100.00%
      0     0    45090.7322   140   102597.5339    45090.7322     2605   56.05%
      0     0    45163.3376   145   102597.5339       Cuts: 8     2840   55.98%
      0     0    45165.5791   149   102597.5339       Cuts: 4     2861   55.98%

GUB cover cuts applied:  0
Clique cuts applied:  5
Mixed integer rounding cuts applied:  0
Flow path cuts applied:  0
Zero-half cuts applied:  5
Gomory fractional cuts applied:  0

Root node processing (before b&c):
  Real time             =    7.33 sec. (10007.54 ticks)
Parallel b&c, 8 threads:
  Real time             =    0.00 sec. (0.00 ticks)
  Sync time (average)   =    0.00 sec.
  Wait time (average)   =    0.00 sec.
                          ------------
Total (root+branch&cut) =    7.33 sec. (10007.54 ticks)
Gap: 55.98%
Upper bound: 102598
Lower bound: 45165.6
End of CPLEX run. Time: 7.35443 seconds

===== New CPLEX run =====
Instance: /home/yorig/tuner/mpils-tests/instances/miplib/medium-2/supportcase6.mps
Config: /scratch/yorig/mpils-results-grid-ticks-10000-2proc-no-mip-start/medium-2/2proc/seed-4/9_supportcase6_seed-4_20260502_000030/iterated_local_search/run_1_worker_1/ils_config_16491404846762771235.prm
========================

Selected objective sense:  MINIMIZE
Selected objective  name:  OBJ
Selected RHS        name:  RHS1
Selected bound      name:  BND1
Version identifier: 22.1.2.0 | 2024-11-26 | 0edbb82fd
CPXPARAM_Threads                                 8
CPXPARAM_Parallel                                1
CPXPARAM_MIP_Cuts_Cliques                        2
CPXPARAM_MIP_Cuts_FlowCovers                     -1
CPXPARAM_MIP_Cuts_Implied                        -1
CPXPARAM_MIP_Cuts_GUBCovers                      2
CPXPARAM_MIP_Limits_GomoryCand                   150
CPXPARAM_MIP_Cuts_PathCut                        2
CPXPARAM_MIP_Cuts_MIRCut                         2
CPXPARAM_Emphasis_MIP                            1
CPXPARAM_DetTimeLimit                            10000
Tried aggregator 3 times.
MIP Presolve eliminated 0 rows and 1 columns.
MIP Presolve modified 757 coefficients.
Aggregator did 7 substitutions.
Reduced MIP has 764 rows, 130044 columns, and 583545 nonzeros.
Reduced MIP has 130044 binaries, 0 generals, 0 SOSs, and 0 indicators.
Presolve time = 0.50 sec. (732.24 ticks)
Found incumbent of value 102597.533860 after 0.84 sec. (1185.29 ticks)
Tried aggregator 1 time.
Detecting symmetries...
Reduced MIP has 764 rows, 130044 columns, and 583545 nonzeros.
Reduced MIP has 130044 binaries, 0 generals, 0 SOSs, and 0 indicators.
Presolve time = 0.28 sec. (317.07 ticks)
Probing time = 0.73 sec. (149.96 ticks)
Clique table members: 229813.
MIP emphasis: integer feasibility.
MIP search method: dynamic search.
Parallel mode: deterministic, using up to 8 threads.
Root relaxation solution time = 2.01 sec. (2855.01 ticks)

        Nodes                                         Cuts/
   Node  Left     Objective  IInf  Best Integer    Best Bound    ItCnt     Gap

*     0+    0                       102597.5339        0.0000           100.00%
      0     0    45090.7322   140   102597.5339    45090.7322     2605   56.05%
      0     0    45163.3376   145   102597.5339       Cuts: 8     2840   55.98%
      0     0    45165.5791   149   102597.5339       Cuts: 4     2861   55.98%

GUB cover cuts applied:  0
Clique cuts applied:  5
Mixed integer rounding cuts applied:  0
Flow path cuts applied:  0
Zero-half cuts applied:  5

Root node processing (before b&c):
  Real time             =    7.26 sec. (10024.01 ticks)
Parallel b&c, 8 threads:
  Real time             =    0.00 sec. (0.00 ticks)
  Sync time (average)   =    0.00 sec.
  Wait time (average)   =    0.00 sec.
                          ------------
Total (root+branch&cut) =    7.26 sec. (10024.01 ticks)
Gap: 55.98%
Upper bound: 102598
Lower bound: 45165.6
End of CPLEX run. Time: 7.27362 seconds

===== New CPLEX run =====
Instance: /home/yorig/tuner/mpils-tests/instances/miplib/medium-2/supportcase6.mps
Config: /scratch/yorig/mpils-results-grid-ticks-10000-2proc-no-mip-start/medium-2/2proc/seed-4/9_supportcase6_seed-4_20260502_000030/iterated_local_search/run_1_worker_1/ils_config_14641529875676470423.prm
========================

Selected objective sense:  MINIMIZE
Selected objective  name:  OBJ
Selected RHS        name:  RHS1
Selected bound      name:  BND1
Version identifier: 22.1.2.0 | 2024-11-26 | 0edbb82fd
CPXPARAM_Threads                                 8
CPXPARAM_Parallel                                1
CPXPARAM_MIP_Cuts_Cliques                        2
CPXPARAM_MIP_Cuts_FlowCovers                     -1
CPXPARAM_MIP_Cuts_Implied                        -1
CPXPARAM_MIP_Cuts_GUBCovers                      2
CPXPARAM_MIP_Limits_GomoryCand                   10
CPXPARAM_MIP_Cuts_Gomory                         2
CPXPARAM_MIP_Cuts_PathCut                        2
CPXPARAM_MIP_Cuts_MIRCut                         2
CPXPARAM_Emphasis_MIP                            1
CPXPARAM_DetTimeLimit                            10000
Tried aggregator 3 times.
MIP Presolve eliminated 0 rows and 1 columns.
MIP Presolve modified 757 coefficients.
Aggregator did 7 substitutions.
Reduced MIP has 764 rows, 130044 columns, and 583545 nonzeros.
Reduced MIP has 130044 binaries, 0 generals, 0 SOSs, and 0 indicators.
Presolve time = 0.50 sec. (732.24 ticks)
Found incumbent of value 102597.533860 after 0.86 sec. (1185.29 ticks)
Tried aggregator 1 time.
Detecting symmetries...
Reduced MIP has 764 rows, 130044 columns, and 583545 nonzeros.
Reduced MIP has 130044 binaries, 0 generals, 0 SOSs, and 0 indicators.
Presolve time = 0.29 sec. (317.07 ticks)
Probing time = 0.74 sec. (149.96 ticks)
Clique table members: 229813.
MIP emphasis: integer feasibility.
MIP search method: dynamic search.
Parallel mode: deterministic, using up to 8 threads.
Root relaxation solution time = 1.72 sec. (2855.01 ticks)

        Nodes                                         Cuts/
   Node  Left     Objective  IInf  Best Integer    Best Bound    ItCnt     Gap

*     0+    0                       102597.5339        0.0000           100.00%
      0     0    45090.7322   140   102597.5339    45090.7322     2605   56.05%
      0     0    45163.3376   145   102597.5339       Cuts: 8     2840   55.98%
      0     0    45165.5791   149   102597.5339       Cuts: 4     2861   55.98%
*     0+    0                        82302.9676    45165.5791            45.12%
*     0+    0                        72336.3364    45165.5791            37.56%
      0     0  -1.00000e+75     0    72336.3364    45165.5791     2861   37.56%

GUB cover cuts applied:  0
Clique cuts applied:  5
Mixed integer rounding cuts applied:  0
Flow path cuts applied:  0
Zero-half cuts applied:  5
Gomory fractional cuts applied:  0

Root node processing (before b&c):
  Real time             =    7.44 sec. (10029.75 ticks)
Parallel b&c, 8 threads:
  Real time             =    0.00 sec. (0.00 ticks)
  Sync time (average)   =    0.00 sec.
  Wait time (average)   =    0.00 sec.
                          ------------
Total (root+branch&cut) =    7.44 sec. (10029.75 ticks)
Gap: 37.56%
Upper bound: 72336.3
Lower bound: 45165.6
End of CPLEX run. Time: 7.45102 seconds

===== New CPLEX run =====
Instance: /home/yorig/tuner/mpils-tests/instances/miplib/medium-2/supportcase6.mps
Config: /scratch/yorig/mpils-results-grid-ticks-10000-2proc-no-mip-start/medium-2/2proc/seed-4/9_supportcase6_seed-4_20260502_000030/iterated_local_search/run_1_worker_1/ils_config_6180013470909553343.prm
========================

Selected objective sense:  MINIMIZE
Selected objective  name:  OBJ
Selected RHS        name:  RHS1
Selected bound      name:  BND1
Version identifier: 22.1.2.0 | 2024-11-26 | 0edbb82fd
CPXPARAM_Threads                                 8
CPXPARAM_Parallel                                1
CPXPARAM_MIP_Cuts_Cliques                        2
CPXPARAM_MIP_Cuts_FlowCovers                     -1
CPXPARAM_MIP_Cuts_Implied                        -1
CPXPARAM_MIP_Cuts_GUBCovers                      2
CPXPARAM_MIP_Cuts_Gomory                         2
CPXPARAM_MIP_Cuts_PathCut                        2
CPXPARAM_MIP_Cuts_MIRCut                         2
CPXPARAM_Emphasis_MIP                            1
CPXPARAM_DetTimeLimit                            10000
Tried aggregator 3 times.
MIP Presolve eliminated 0 rows and 1 columns.
MIP Presolve modified 757 coefficients.
Aggregator did 7 substitutions.
Reduced MIP has 764 rows, 130044 columns, and 583545 nonzeros.
Reduced MIP has 130044 binaries, 0 generals, 0 SOSs, and 0 indicators.
Presolve time = 0.53 sec. (732.24 ticks)
Found incumbent of value 102597.533860 after 0.90 sec. (1185.29 ticks)
Tried aggregator 1 time.
Detecting symmetries...
Reduced MIP has 764 rows, 130044 columns, and 583545 nonzeros.
Reduced MIP has 130044 binaries, 0 generals, 0 SOSs, and 0 indicators.
Presolve time = 0.33 sec. (317.07 ticks)
Probing time = 0.65 sec. (149.96 ticks)
Clique table members: 229813.
MIP emphasis: integer feasibility.
MIP search method: dynamic search.
Parallel mode: deterministic, using up to 8 threads.
Root relaxation solution time = 1.45 sec. (2855.01 ticks)

        Nodes                                         Cuts/
   Node  Left     Objective  IInf  Best Integer    Best Bound    ItCnt     Gap

*     0+    0                       102597.5339        0.0000           100.00%
      0     0    45090.7322   140   102597.5339    45090.7322     2605   56.05%
      0     0    45163.3376   145   102597.5339       Cuts: 8     2840   55.98%
      0     0    45165.5791   149   102597.5339       Cuts: 4     2861   55.98%

GUB cover cuts applied:  0
Clique cuts applied:  5
Mixed integer rounding cuts applied:  0
Flow path cuts applied:  0
Zero-half cuts applied:  5
Gomory fractional cuts applied:  0

Root node processing (before b&c):
  Real time             =    6.53 sec. (10007.54 ticks)
Parallel b&c, 8 threads:
  Real time             =    0.00 sec. (0.00 ticks)
  Sync time (average)   =    0.00 sec.
  Wait time (average)   =    0.00 sec.
                          ------------
Total (root+branch&cut) =    6.53 sec. (10007.54 ticks)
Gap: 55.98%
Upper bound: 102598
Lower bound: 45165.6
End of CPLEX run. Time: 6.53826 seconds

===== New CPLEX run =====
Instance: /home/yorig/tuner/mpils-tests/instances/miplib/medium-2/supportcase6.mps
Config: /scratch/yorig/mpils-results-grid-ticks-10000-2proc-no-mip-start/medium-2/2proc/seed-4/9_supportcase6_seed-4_20260502_000030/iterated_local_search/run_1_worker_1/ils_config_18181308809607689415.prm
========================

Selected objective sense:  MINIMIZE
Selected objective  name:  OBJ
Selected RHS        name:  RHS1
Selected bound      name:  BND1
Version identifier: 22.1.2.0 | 2024-11-26 | 0edbb82fd
CPXPARAM_Threads                                 8
CPXPARAM_Parallel                                1
CPXPARAM_MIP_Cuts_Cliques                        1
CPXPARAM_MIP_Cuts_FlowCovers                     -1
CPXPARAM_MIP_Cuts_Implied                        -1
CPXPARAM_MIP_Cuts_GUBCovers                      2
CPXPARAM_MIP_Limits_GomoryCand                   10
CPXPARAM_MIP_Cuts_Gomory                         2
CPXPARAM_MIP_Cuts_PathCut                        2
CPXPARAM_MIP_Cuts_MIRCut                         2
CPXPARAM_Emphasis_MIP                            1
CPXPARAM_DetTimeLimit                            10000
Tried aggregator 3 times.
MIP Presolve eliminated 0 rows and 1 columns.
MIP Presolve modified 757 coefficients.
Aggregator did 7 substitutions.
Reduced MIP has 764 rows, 130044 columns, and 583545 nonzeros.
Reduced MIP has 130044 binaries, 0 generals, 0 SOSs, and 0 indicators.
Presolve time = 0.53 sec. (732.24 ticks)
Found incumbent of value 102597.533860 after 0.90 sec. (1185.29 ticks)
Tried aggregator 1 time.
Detecting symmetries...
Reduced MIP has 764 rows, 130044 columns, and 583545 nonzeros.
Reduced MIP has 130044 binaries, 0 generals, 0 SOSs, and 0 indicators.
Presolve time = 0.34 sec. (317.07 ticks)
Probing time = 0.34 sec. (149.96 ticks)
Clique table members: 229813.
MIP emphasis: integer feasibility.
MIP search method: dynamic search.
Parallel mode: deterministic, using up to 8 threads.
Root relaxation solution time = 1.54 sec. (2855.01 ticks)

        Nodes                                         Cuts/
   Node  Left     Objective  IInf  Best Integer    Best Bound    ItCnt     Gap

*     0+    0                       102597.5339        0.0000           100.00%
      0     0    45090.7322   140   102597.5339    45090.7322     2605   56.05%
      0     0    45163.3376   145   102597.5339       Cuts: 8     2840   55.98%
      0     0    45165.5791   149   102597.5339       Cuts: 4     2861   55.98%
*     0+    0                        82302.9676    45165.5791            45.12%
*     0+    0                        72336.3364    45165.5791            37.56%
      0     0  -1.00000e+75     0    72336.3364    45165.5791     2861   37.56%

GUB cover cuts applied:  0
Clique cuts applied:  5
Mixed integer rounding cuts applied:  0
Flow path cuts applied:  0
Zero-half cuts applied:  5
Gomory fractional cuts applied:  0

Root node processing (before b&c):
  Real time             =    6.80 sec. (10029.95 ticks)
Parallel b&c, 8 threads:
  Real time             =    0.00 sec. (0.00 ticks)
  Sync time (average)   =    0.00 sec.
  Wait time (average)   =    0.00 sec.
                          ------------
Total (root+branch&cut) =    6.80 sec. (10029.95 ticks)
Gap: 37.56%
Upper bound: 72336.3
Lower bound: 45165.6
End of CPLEX run. Time: 6.80704 seconds

===== New CPLEX run =====
Instance: /home/yorig/tuner/mpils-tests/instances/miplib/medium-2/supportcase6.mps
Config: /scratch/yorig/mpils-results-grid-ticks-10000-2proc-no-mip-start/medium-2/2proc/seed-4/9_supportcase6_seed-4_20260502_000030/iterated_local_search/run_1_worker_1/ils_config_167073399308404491.prm
========================

Selected objective sense:  MINIMIZE
Selected objective  name:  OBJ
Selected RHS        name:  RHS1
Selected bound      name:  BND1
Version identifier: 22.1.2.0 | 2024-11-26 | 0edbb82fd
CPXPARAM_Threads                                 8
CPXPARAM_Parallel                                1
CPXPARAM_MIP_Cuts_Cliques                        2
CPXPARAM_MIP_Cuts_FlowCovers                     -1
CPXPARAM_MIP_Cuts_Implied                        -1
CPXPARAM_MIP_Cuts_GUBCovers                      -1
CPXPARAM_MIP_Limits_GomoryCand                   10
CPXPARAM_MIP_Cuts_Gomory                         2
CPXPARAM_MIP_Cuts_PathCut                        2
CPXPARAM_MIP_Cuts_MIRCut                         2
CPXPARAM_Emphasis_MIP                            1
CPXPARAM_DetTimeLimit                            10000
Tried aggregator 3 times.
MIP Presolve eliminated 0 rows and 1 columns.
MIP Presolve modified 757 coefficients.
Aggregator did 7 substitutions.
Reduced MIP has 764 rows, 130044 columns, and 583545 nonzeros.
Reduced MIP has 130044 binaries, 0 generals, 0 SOSs, and 0 indicators.
Presolve time = 0.54 sec. (732.24 ticks)
Found incumbent of value 102597.533860 after 0.95 sec. (1185.29 ticks)
Tried aggregator 1 time.
Detecting symmetries...
Reduced MIP has 764 rows, 130044 columns, and 583545 nonzeros.
Reduced MIP has 130044 binaries, 0 generals, 0 SOSs, and 0 indicators.
Presolve time = 0.33 sec. (317.07 ticks)
Probing time = 0.41 sec. (149.96 ticks)
Clique table members: 229813.
MIP emphasis: integer feasibility.
MIP search method: dynamic search.
Parallel mode: deterministic, using up to 8 threads.
Root relaxation solution time = 1.42 sec. (2855.01 ticks)

        Nodes                                         Cuts/
   Node  Left     Objective  IInf  Best Integer    Best Bound    ItCnt     Gap

*     0+    0                       102597.5339        0.0000           100.00%
      0     0    45090.7322   140   102597.5339    45090.7322     2605   56.05%
      0     0    45163.3376   145   102597.5339       Cuts: 8     2840   55.98%
      0     0    45165.5791   149   102597.5339       Cuts: 4     2861   55.98%
*     0+    0                        82302.9676    45165.5791            45.12%
*     0+    0                        72336.3364    45165.5791            37.56%
      0     0  -1.00000e+75     0    72336.3364    45165.5791     2861   37.56%

Clique cuts applied:  5
Mixed integer rounding cuts applied:  0
Flow path cuts applied:  0
Zero-half cuts applied:  5
Gomory fractional cuts applied:  0

Root node processing (before b&c):
  Real time             =    7.45 sec. (10029.80 ticks)
Parallel b&c, 8 threads:
  Real time             =    0.00 sec. (0.00 ticks)
  Sync time (average)   =    0.00 sec.
  Wait time (average)   =    0.00 sec.
                          ------------
Total (root+branch&cut) =    7.45 sec. (10029.80 ticks)
Gap: 37.56%
Upper bound: 72336.3
Lower bound: 45165.6
End of CPLEX run. Time: 7.48502 seconds

===== New CPLEX run =====
Instance: /home/yorig/tuner/mpils-tests/instances/miplib/medium-2/supportcase6.mps
Config: /scratch/yorig/mpils-results-grid-ticks-10000-2proc-no-mip-start/medium-2/2proc/seed-4/9_supportcase6_seed-4_20260502_000030/iterated_local_search/run_1_worker_1/ils_config_2124134745575245083.prm
========================

Selected objective sense:  MINIMIZE
Selected objective  name:  OBJ
Selected RHS        name:  RHS1
Selected bound      name:  BND1
Version identifier: 22.1.2.0 | 2024-11-26 | 0edbb82fd
CPXPARAM_Threads                                 8
CPXPARAM_Parallel                                1
CPXPARAM_MIP_Cuts_Cliques                        2
CPXPARAM_MIP_Cuts_FlowCovers                     -1
CPXPARAM_MIP_Cuts_Implied                        -1
CPXPARAM_MIP_Cuts_GUBCovers                      2
CPXPARAM_MIP_Limits_GomoryCand                   150
CPXPARAM_MIP_Cuts_Gomory                         -1
CPXPARAM_MIP_Cuts_PathCut                        2
CPXPARAM_MIP_Cuts_MIRCut                         2
CPXPARAM_Emphasis_MIP                            1
CPXPARAM_DetTimeLimit                            10000
Tried aggregator 3 times.
MIP Presolve eliminated 0 rows and 1 columns.
MIP Presolve modified 757 coefficients.
Aggregator did 7 substitutions.
Reduced MIP has 764 rows, 130044 columns, and 583545 nonzeros.
Reduced MIP has 130044 binaries, 0 generals, 0 SOSs, and 0 indicators.
Presolve time = 0.54 sec. (732.24 ticks)
Found incumbent of value 102597.533860 after 0.89 sec. (1185.29 ticks)
Tried aggregator 1 time.
Detecting symmetries...
Reduced MIP has 764 rows, 130044 columns, and 583545 nonzeros.
Reduced MIP has 130044 binaries, 0 generals, 0 SOSs, and 0 indicators.
Presolve time = 0.26 sec. (317.07 ticks)
Probing time = 0.37 sec. (149.96 ticks)
Clique table members: 229813.
MIP emphasis: integer feasibility.
MIP search method: dynamic search.
Parallel mode: deterministic, using up to 8 threads.
Root relaxation solution time = 1.42 sec. (2855.01 ticks)

        Nodes                                         Cuts/
   Node  Left     Objective  IInf  Best Integer    Best Bound    ItCnt     Gap

*     0+    0                       102597.5339        0.0000           100.00%
      0     0    45090.7322   140   102597.5339    45090.7322     2605   56.05%
      0     0    45163.3376   145   102597.5339       Cuts: 8     2840   55.98%
      0     0    45165.5791   149   102597.5339       Cuts: 4     2861   55.98%
*     0+    0                        82302.9676    45165.5791            45.12%
*     0+    0                        72336.3364    45165.5791            37.56%
